100
32
3
25
16
19
11
21
28
6
11
31
19
12
7
16
17
2
10
11
12
3
11
24
10
5
21
23
1
1
5
1
3
1
2
12
17
15
18
3
2
19
18
16
1
4
5
2
3
2
6
1
20
15
21
7
1
2
1
29
1
2
18
10
18
2
3
24
16
3
1
22
7
3
1
4
19
8
6
3
18
1
3
15
1
3
12
2
1
13
2
3
5
30
3
6
4
2
2
2
1
2